\* Problem: Unknown *\

Maximize
 obj: + xp_0_0 + xp_0_1 + xp_0_2 + xp_0_3 + xp_0_4 + xp_0_5 + xp_1_0
 + xp_1_1 + xp_1_2 + xp_1_3 + xp_1_4 + xp_1_5 + xp_1_6 + xp_1_7 + xp_1_8
 + xp_2_0 + xp_2_1 + xp_2_2 + xp_2_3 + xp_2_4 + xp_2_5 + xp_2_6 + xp_2_7
 + xp_2_8 + xp_2_9 + xp_2_10 + xp_2_11 + xp_2_12 + xp_2_13 + xp_2_14
 + xp_2_15 + xp_2_16 + xp_2_17 + xp_2_18 + xp_2_19 + xp_3_0 + xp_3_1
 + xp_3_2 + xp_3_3 + xp_3_4 + xp_3_5 + xp_3_6 + xp_3_7 + xp_3_8 + xp_3_9
 + xp_3_10 + xp_3_11 + xp_4_0 + xp_4_1 + xp_4_2 + xp_5_0 + xp_5_1
 + xp_5_2 + xp_5_3 + xp_6_0 + xp_6_1 + xp_6_2 + xp_7_0 + xp_8_0 + xp_8_1
 + xp_8_2 + xp_8_3 + xp_8_4 + xp_8_5 + xp_9_0 + xp_9_1 + xp_9_2
 + xp_10_0 + xp_10_1 + xp_10_2 + xp_10_3 + xp_10_4 + xp_10_5 + xp_10_6
 + xp_11_0 + xp_11_1 + xp_11_2 + xp_11_3 + xp_11_4 + xp_11_5 + xp_12_0
 + xp_12_1 + xp_12_2 + xp_13_0 + xp_13_1 + xp_13_2 + xp_13_3 + xp_14_0
 + xp_14_1 + xp_14_2 + xp_14_3 + xp_14_4 + xp_14_5 + xp_14_6 + xp_14_7
 + xp_14_8 + xp_14_9 + xp_14_10 + xp_14_11 + xp_14_12 + xp_14_13
 + xp_14_14 + xp_14_15 + xp_15_0 + xp_15_1 + xp_15_2 + xp_15_3 + xp_15_4
 + xp_15_5 + xp_15_6 + xp_15_7 + xp_15_8 + xp_16_0 + xp_16_1 + xp_16_2
 + xp_17_0 + xp_17_1 + xp_17_2 + xp_17_3 + xp_17_4 + xp_17_5 + xp_17_6
 + xp_17_7 + xp_18_0 + xp_18_1 + xp_18_2 + xp_18_3 + xp_18_4 + xp_18_5
 + xp_18_6 + xp_18_7 + xp_19_0 + xp_19_1 + xp_19_2 + xp_19_3 + xp_19_4
 + xp_19_5 + xp_19_6 + xp_19_7 + xp_19_8 + xp_19_9 + xp_19_10 + xp_19_11
 + xp_19_12 + xp_19_13 + xp_19_14 + xp_19_15 + xp_19_16 + xp_20_0
 + xp_20_1 + xp_20_2 + xp_20_3 + xp_20_4 + xp_20_5 + xp_20_6 + xp_20_7
 + xp_20_8 + xp_20_9 + xp_21_0 + xp_21_1 + xp_21_2 + xp_21_3 + xp_21_4

Subject To
 r_1: + xp_20_0 <= 0.847761194029851
 r_2: + xp_10_0 + xp_2_1 <= 0.837640449438202
 r_3: + xp_20_6 + xp_20_2 + xp_11_3 + xp_10_5 + xp_4_2
 <= 0.829716193656094
 r_4: + xp_20_9 + xp_20_3 + xp_19_14 + xp_19_8 + xp_18_1 + xp_14_12
 + xp_11_1 + xp_10_2 + xp_3_10 + xp_2_13 <= 0.830589254766031
 r_5: + xp_21_2 + xp_20_8 + xp_20_5 + xp_19_13 + xp_18_6 + xp_11_5
 + xp_10_3 + xp_3_1 + xp_2_15 + xp_2_14 <= 0.826468481375358
 r_6: + xp_19_3 + xp_11_0 <= 0.833093869731801
 r_7: + xp_20_7 + xp_20_4 + xp_19_16 + xp_19_15 + xp_18_5 + xp_11_4
 + xp_11_2 + xp_10_6 + xp_10_4 + xp_10_1 + xp_2_17 + xp_2_8
 <= 0.829716193656094
 r_8: + xp_20_1 <= 0.829716193656094
 r_9: + xp_2_18 + xp_2_0 + xp_1_7 <= 0.837640449438202
 r_10: 0 xp_0_0 <= 0.829716193656094
 r_11: + xp_1_6 + xp_0_4 <= 0.829716193656094
 r_12: 0 xp_0_0 <= 0.829716193656094
 r_13: + xp_12_2 <= 0.833093869731801
 r_14: + xp_2_5 <= 0.830589254766031
 r_15: + xp_3_2 + xp_1_5 + xp_0_5 <= 0.826468481375358
 r_16: + xp_13_1 <= 0.847761194029851
 r_17: 0 xp_0_0 <= 0.847761194029851
 r_18: + xp_19_1 + xp_12_1 <= 0.833093869731801
 r_19: + xp_17_7 + xp_17_4 + xp_15_8 + xp_15_2 + xp_14_12 + xp_14_5
 + xp_14_3 + xp_8_3 + xp_2_18 <= 0.847761194029851
 r_20: + xp_1_2 <= 0.833093869731801
 r_21: 0 xp_0_0 <= 0.829716193656094
 r_22: + xp_18_0 + xp_2_4 + xp_0_2 <= 0.830589254766031
 r_23: 0 xp_0_0 <= 0.829716193656094
 r_24: 0 xp_0_0 <= 0.829716193656094
 r_25: 0 xp_0_0 <= 0.826468481375358
 r_26: + xp_17_0 + xp_15_7 + xp_15_5 + xp_14_14 + xp_14_13 + xp_14_8
 + xp_8_4 <= 0.826468481375358
 r_27: + xp_20_5 + xp_17_6 + xp_17_4 + xp_1_5 + xp_1_0
 <= 0.833093869731801
 r_28: + xp_4_1 <= 0.829716193656094
 r_29: + xp_17_1 + xp_14_10 + xp_10_4 + xp_10_3 + xp_8_5 + xp_5_1
 + xp_2_14 + xp_2_10 + xp_2_9 <= 0.837640449438202
 r_30: + xp_20_8 + xp_19_9 + xp_18_6 + xp_18_3 + xp_17_7 + xp_17_2
 + xp_2_16 + xp_2_15 <= 0.830589254766031
 r_31: + xp_17_5 + xp_14_11 + xp_1_8 + xp_0_5 + xp_0_3
 <= 0.829716193656094
 r_32: + xp_19_15 + xp_19_14 + xp_19_13 + xp_19_12 + xp_19_10 + xp_19_7
 + xp_19_0 + xp_17_3 + xp_15_3 + xp_11_5 + xp_11_3 + xp_11_2 + xp_6_2
 <= 0.833093869731801
 r_33: + xp_21_4 + xp_21_3 + xp_13_3 + xp_3_5 + xp_2_12 + xp_2_11
 + xp_2_10 + xp_1_3 <= 0.833093869731801
 r_34: + xp_13_0 <= 0.833093869731801
 r_35: + xp_17_3 + xp_15_3 + xp_13_1 <= 0.833093869731801
 r_36: + xp_21_1 + xp_13_2 + xp_3_6 + xp_2_6 <= 0.830589254766031
 r_37: + xp_21_2 + xp_9_1 <= 0.833093869731801
 r_38: 0 xp_0_0 <= 0.829716193656094
 r_39: + xp_21_0 + xp_3_8 <= 0.833093869731801
 r_40: + xp_14_15 <= 0.830589254766031
 r_41: 0 xp_0_0 <= 0.837640449438202
 r_42: + xp_17_1 + xp_15_6 + xp_15_4 + xp_14_10 + xp_14_7 + xp_14_2
 + xp_8_5 + xp_8_2 <= 0.837640449438202
 r_43: + xp_1_7 <= 0.833093869731801
 r_44: 0 xp_0_0 <= 0.829716193656094
 r_45: + xp_19_12 <= 0.837640449438202
 r_46: 0 xp_0_0 <= 0.829716193656094
 r_47: + xp_19_16 + xp_19_11 + xp_19_4 + xp_11_4 + xp_6_0
 <= 0.833093869731801
 r_48: + xp_19_5 + xp_18_7 + xp_18_4 + xp_17_6 + xp_6_1 + xp_5_3
 + xp_2_19 <= 0.830589254766031
 r_49: 0 xp_0_0 <= 0.829716193656094
 r_50: + xp_20_9 + xp_20_6 + xp_20_5 + xp_20_4 + xp_17_4 + xp_16_2
 + xp_16_1 + xp_15_2 + xp_14_12 + xp_14_5 + xp_13_3 <= 0.833093869731801
 r_51: + xp_21_3 + xp_19_10 + xp_15_7 + xp_14_13 + xp_6_2 + xp_5_1
 + xp_3_11 + xp_3_5 + xp_2_10 <= 0.833093869731801
 r_52: + xp_5_0 + xp_2_17 + xp_2_12 <= 0.833093869731801
 r_53: + xp_21_4 + xp_14_9 + xp_5_2 + xp_2_11 <= 0.829716193656094
 r_54: + xp_15_4 + xp_10_6 + xp_10_2 + xp_8_2 + xp_5_3 + xp_2_19
 + xp_2_16 + xp_2_15 + xp_2_13 + xp_2_6 + xp_2_5 + xp_2_4
 <= 0.830589254766031
 r_55: + xp_20_9 + xp_16_2 + xp_14_12 + xp_7_0 <= 0.830589254766031
 r_56: + xp_19_9 + xp_19_8 + xp_19_6 + xp_19_5 + xp_11_1 + xp_6_1
 <= 0.830589254766031
 r_57: 0 xp_0_0 <= 0.830589254766031
 r_58: + xp_17_6 + xp_17_2 + xp_15_1 + xp_14_15 + xp_14_6 + xp_8_0
 <= 0.830589254766031
 r_59: + xp_20_8 + xp_20_7 + xp_20_3 + xp_17_7 + xp_16_0 + xp_15_8
 + xp_13_2 + xp_8_3 <= 0.830589254766031
 r_60: + xp_21_1 + xp_19_14 + xp_8_5 + xp_8_4 + xp_3_10 + xp_3_9
 + xp_3_6 <= 0.830589254766031
 r_61: + xp_16_1 + xp_8_1 + xp_0_2 <= 0.829716193656094
 r_62: + xp_20_6 + xp_19_10 + xp_19_5 + xp_19_4 + xp_18_4 + xp_14_13
 + xp_14_9 + xp_14_5 + xp_2_19 + xp_1_1 <= 0.829716193656094
 r_63: + xp_19_16 + xp_19_15 + xp_19_14 + xp_19_13 + xp_19_8 + xp_19_3
 + xp_18_6 + xp_18_5 + xp_18_1 + xp_14_12 + xp_9_2 <= 0.829716193656094
 r_64: + xp_14_0 <= 0.829716193656094
 r_65: + xp_20_2 + xp_19_1 + xp_18_0 + xp_14_3 <= 0.829716193656094
 r_66: + xp_19_9 + xp_19_0 + xp_18_3 + xp_14_11 + xp_14_10 + xp_14_8
 + xp_11_3 + xp_3_4 <= 0.829716193656094
 r_67: + xp_19_12 + xp_14_15 + xp_14_2 + xp_10_5 + xp_2_2
 <= 0.829716193656094
 r_68: + xp_19_11 + xp_19_7 + xp_19_6 + xp_18_7 + xp_18_2 + xp_14_14
 + xp_14_7 + xp_14_6 + xp_14_1 + xp_3_7 + xp_2_7 + xp_0_1
 <= 0.829716193656094
 r_69: + xp_19_2 + xp_14_4 <= 0.829716193656094
 r_70: 0 xp_0_0 <= 0.829716193656094
 r_71: + xp_17_5 + xp_15_0 + xp_14_11 + xp_14_9 + xp_14_1 + xp_8_1
 <= 0.829716193656094
 r_72: + xp_4_2 <= 0.829716193656094
 r_73: + xp_21_4 + xp_19_15 + xp_19_7 + xp_15_5 + xp_15_3 + xp_14_14
 + xp_11_2 + xp_10_4 + xp_4_1 + xp_3_7 + xp_3_3 <= 0.829716193656094
 r_74: + xp_15_6 + xp_14_7 + xp_10_1 + xp_5_2 + xp_2_11 + xp_2_8
 + xp_2_7 + xp_2_3 <= 0.829716193656094
 r_75: + xp_20_4 + xp_19_16 + xp_19_11 + xp_18_7 + xp_16_1 + xp_15_7
 + xp_15_2 + xp_11_4 + xp_3_11 + xp_2_17 + xp_1_8 + xp_1_6 + xp_1_4
 <= 0.829716193656094
 r_76: + xp_20_7 + xp_19_6 + xp_18_5 + xp_18_2 + xp_15_8 + xp_15_4
 + xp_15_1 + xp_14_6 + xp_10_6 + xp_3_9 <= 0.829716193656094
 r_77: + xp_4_0 <= 0.829716193656094
 r_78: + xp_3_0 + xp_2_16 + xp_2_9 + xp_1_8 + xp_1_0 + xp_0_3
 <= 0.829716193656094
 r_79: + xp_3_11 + xp_3_9 + xp_3_3 + xp_2_3 + xp_1_4 + xp_0_0
 <= 0.829716193656094
 r_80: + xp_14_4 + xp_12_2 + xp_3_2 + xp_2_5 + xp_2_0 + xp_1_7 + xp_1_6
 + xp_1_5 + xp_0_5 + xp_0_4 <= 0.829716193656094
 r_81: + xp_9_0 + xp_3_10 + xp_3_1 + xp_2_17 + xp_2_15 + xp_2_14
 + xp_2_13 + xp_2_8 + xp_2_1 <= 0.829716193656094
 r_82: + xp_20_1 + xp_12_1 + xp_2_18 + xp_2_4 + xp_1_2 + xp_0_2
 <= 0.829716193656094
 r_83: + xp_19_2 + xp_12_0 + xp_9_1 + xp_3_8 + xp_3_6 + xp_3_5 + xp_2_12
 + xp_2_11 + xp_2_10 + xp_2_6 + xp_1_3 <= 0.829716193656094
 r_84: + xp_9_2 + xp_3_7 + xp_3_4 + xp_2_19 + xp_2_7 + xp_2_2 + xp_1_1
 + xp_0_1 <= 0.829716193656094

Bounds
 0 <= xp_0_0 <= 0.4
 0 <= xp_0_1 <= 0.02
 0 <= xp_0_2 <= 0.26
 0 <= xp_0_3 <= 0.04
 0 <= xp_0_4 <= 0.24
 0 <= xp_0_5 <= 0.02
 0 <= xp_1_0 <= 0.4
 0 <= xp_1_1 <= 0.21
 0 <= xp_1_2 <= 0.46
 0 <= xp_1_3 <= 0.16
 0 <= xp_1_4 <= 0.07
 0 <= xp_1_5 <= 0.01
 0 <= xp_1_6 <= 0.02
 0 <= xp_1_7 <= 0.12
 0 <= xp_1_8 <= 0.02
 0 <= xp_2_0 <= 0.27
 0 <= xp_2_1 <= 0.14
 0 <= xp_2_2 <= 0.41
 0 <= xp_2_3 <= 0.07
 0 <= xp_2_4 <= 0.07
 0 <= xp_2_5 <= 0.04
 0 <= xp_2_6 <= 0.15
 0 <= xp_2_7 <= 0.03
 0 <= xp_2_8 <= 0.03
 0 <= xp_2_9 <= 0.07
 0 <= xp_2_10 <= 0.03
 0 <= xp_2_11 <= 0.01
 0 <= xp_2_12 <= 0.03
 0 <= xp_2_13 <= 0.01
 0 <= xp_2_14 <= 0.02
 0 <= xp_2_15 <= 0.01
 0 <= xp_2_16 <= 0.01
 0 <= xp_2_17 <= 0.02
 0 <= xp_2_18 <= 0.04
 0 <= xp_2_19 <= 0.01
 0 <= xp_3_0 <= 0.46
 0 <= xp_3_1 <= 0.42
 0 <= xp_3_2 <= 0.18
 0 <= xp_3_3 <= 0.42
 0 <= xp_3_4 <= 0.1
 0 <= xp_3_5 <= 0.06
 0 <= xp_3_6 <= 0.16
 0 <= xp_3_7 <= 0.02
 0 <= xp_3_8 <= 0.06
 0 <= xp_3_9 <= 0.02
 0 <= xp_3_10 <= 0.04
 0 <= xp_3_11 <= 0.02
 0 <= xp_4_0 <= 0.47
 0 <= xp_4_1 <= 0.01
 0 <= xp_4_2 <= 0.01
 0 <= xp_5_0 <= 0.68
 0 <= xp_5_1 <= 0.08
 0 <= xp_5_2 <= 0.14
 0 <= xp_5_3 <= 0.08
 0 <= xp_6_0 <= 0.52
 0 <= xp_6_1 <= 0.34
 0 <= xp_6_2 <= 0.12
 0 <= xp_7_0 <= 0.49
 0 <= xp_8_0 <= 0.25
 0 <= xp_8_1 <= 0.08
 0 <= xp_8_2 <= 0.06
 0 <= xp_8_3 <= 0.07
 0 <= xp_8_4 <= 0.02
 0 <= xp_8_5 <= 0.01
 0 <= xp_9_0 <= 0.29
 0 <= xp_9_1 <= 0.02
 0 <= xp_9_2 <= 0.18
 0 <= xp_10_0 <= 0.74
 0 <= xp_10_1 <= 0.27
 0 <= xp_10_2 <= 0.19
 0 <= xp_10_3 <= 0.13
 0 <= xp_10_4 <= 0.02
 0 <= xp_10_5 <= 0.11
 0 <= xp_10_6 <= 0.01
 0 <= xp_11_0 <= 0.66
 0 <= xp_11_1 <= 0.2
 0 <= xp_11_2 <= 0.02
 0 <= xp_11_3 <= 0.04
 0 <= xp_11_4 <= 0.02
 0 <= xp_11_5 <= 0.04
 0 <= xp_12_0 <= 0.29
 0 <= xp_12_1 <= 0.11
 0 <= xp_12_2 <= 0.09
 0 <= xp_13_0 <= 0.94
 0 <= xp_13_1 <= 0.86
 0 <= xp_13_2 <= 0.04
 0 <= xp_13_3 <= 0.12
 0 <= xp_14_0 <= 0.96
 0 <= xp_14_1 <= 0.22
 0 <= xp_14_2 <= 0.3
 0 <= xp_14_3 <= 0.38
 0 <= xp_14_4 <= 0.01
 0 <= xp_14_5 <= 0.08
 0 <= xp_14_6 <= 0.11
 0 <= xp_14_7 <= 0.06
 0 <= xp_14_8 <= 0.12
 0 <= xp_14_9 <= 0.04
 0 <= xp_14_10 <= 0.08
 0 <= xp_14_11 <= 0.02
 0 <= xp_14_12 <= 0.01
 0 <= xp_14_13 <= 0.03
 0 <= xp_14_14 <= 0.02
 0 <= xp_14_15 <= 0.01
 0 <= xp_15_0 <= 0.5
 0 <= xp_15_1 <= 0.2
 0 <= xp_15_2 <= 0.02
 0 <= xp_15_3 <= 0.02
 0 <= xp_15_4 <= 0.06
 0 <= xp_15_5 <= 0.04
 0 <= xp_15_6 <= 0.1
 0 <= xp_15_7 <= 0.02
 0 <= xp_15_8 <= 0.02
 0 <= xp_16_0 <= 0.39
 0 <= xp_16_1 <= 0.01
 0 <= xp_16_2 <= 0.09
 0 <= xp_17_0 <= 0.69
 0 <= xp_17_1 <= 0.25
 0 <= xp_17_2 <= 0.34
 0 <= xp_17_3 <= 0.04
 0 <= xp_17_4 <= 0.06
 0 <= xp_17_5 <= 0.07
 0 <= xp_17_6 <= 0.01
 0 <= xp_17_7 <= 0.01
 0 <= xp_18_0 <= 0.01
 0 <= xp_18_1 <= 0.05
 0 <= xp_18_2 <= 0.15
 0 <= xp_18_3 <= 0.13
 0 <= xp_18_4 <= 0.12
 0 <= xp_18_5 <= 0.01
 0 <= xp_18_6 <= 0.01
 0 <= xp_18_7 <= 0.01
 0 <= xp_19_0 <= 0.33
 0 <= xp_19_1 <= 0.06
 0 <= xp_19_2 <= 0.01
 0 <= xp_19_3 <= 0.26
 0 <= xp_19_4 <= 0.23
 0 <= xp_19_5 <= 0.09
 0 <= xp_19_6 <= 0.07
 0 <= xp_19_7 <= 0.08
 0 <= xp_19_8 <= 0.08
 0 <= xp_19_9 <= 0.05
 0 <= xp_19_10 <= 0.02
 0 <= xp_19_11 <= 0.06
 0 <= xp_19_12 <= 0.05
 0 <= xp_19_13 <= 0.04
 0 <= xp_19_14 <= 0.01
 0 <= xp_19_15 <= 0.02
 0 <= xp_19_16 <= 0.01
 0 <= xp_20_0 <= 0.97
 0 <= xp_20_1 <= 0.06
 0 <= xp_20_2 <= 0.51
 0 <= xp_20_3 <= 0.27
 0 <= xp_20_4 <= 0.36
 0 <= xp_20_5 <= 0.13
 0 <= xp_20_6 <= 0.03
 0 <= xp_20_7 <= 0.06
 0 <= xp_20_8 <= 0.05
 0 <= xp_20_9 <= 0.01
 0 <= xp_21_0 <= 0.72
 0 <= xp_21_1 <= 0.4
 0 <= xp_21_2 <= 0.02
 0 <= xp_21_3 <= 0.31
 0 <= xp_21_4 <= 0.02

End
